
Log started (V11.0.0) Wed May 14 13:22:20 2008

Tried aggregator 1 time.
Reduced MIP has 120 rows, 2001 columns, and 4020 nonzeros.
Presolve time =    0.02 sec.
Clique table members: 100.
MIP emphasis: balance optimality and feasibility.
MIP search method: dynamic search.
Parallel mode: none, using 1 thread.
Root relaxation solution time =    0.05 sec.

        Nodes                                         Cuts/
   Node  Left     Objective  IInf  Best Integer     Best Node    ItCnt     Gap

*     0+    0                         9133.0000      195.9871      278   97.85%
*     0+    0                          215.0000      195.9871      278    8.84%
      0     0      197.3088    38      215.0000      Fract: 5      295    8.23%
      0     0      199.4392    54      215.0000      Cuts: 18      475    7.24%
      0     0      200.6383    65      215.0000      Cuts: 14      628    6.68%
      0     0      200.8895    75      215.0000      Cuts: 11      734    6.56%
      0     0      201.1848    70      215.0000    MIRcuts: 9      818    6.43%
      0     0      201.3768    77      215.0000       Cuts: 8      857    6.34%
*     0+    0                          214.0000      201.3768      857    5.90%
      0     0      201.3768    77      214.0000    MIRcuts: 3      873    5.90%
      0     0      201.3768    78      214.0000    MIRcuts: 3      880    5.90%
*     0+    0                          213.0000      201.3768      880    5.46%
*     0+    0                          209.0000      201.3768      880    3.65%
      0     2      202.0000    62      209.0000      201.3768      880    3.65%
    100    94      204.0000    27      209.0000      202.0000     2675    3.35%
    200   159      205.0000    18      209.0000      202.0000     4769    3.35%
    300   212      206.0000    19      209.0000      202.0000     6677    3.35%
    400   249      208.0000    15      209.0000      202.0000     7726    3.35%
*   471+    0                          208.0000      208.0000     9431    0.00%

Cover cuts applied:  20
Flow cuts applied:  1
Mixed integer rounding cuts applied:  10

Solution pool: 6 solutions saved.

MIP - Integer optimal solution:  Objective = 2.0800000000e+002
Solution time =    4.42 sec.  Iterations = 9431  Nodes = 471


Incumbent solution
Variable Name           Solution Value
Cmax                        208.000000
X_1_6                         1.000000
X_2_13                        1.000000
X_3_19                        1.000000
X_4_9                         1.000000
X_5_15                        1.000000
X_6_3                         1.000000
X_7_15                        1.000000
X_8_16                        1.000000
X_9_14                        1.000000
X_10_14                       1.000000
X_11_7                        1.000000
X_12_2                        1.000000
X_13_12                       1.000000
X_14_3                        1.000000
X_15_15                       1.000000
X_16_9                        1.000000
X_17_7                        1.000000
X_18_14                       1.000000
X_19_11                       1.000000
X_20_17                       1.000000
X_21_18                       1.000000
X_22_7                        1.000000
X_23_13                       1.000000
X_24_13                       1.000000
X_25_12                       1.000000
X_26_18                       1.000000
X_27_9                        1.000000
X_28_3                        1.000000
X_29_20                       1.000000
X_30_11                       1.000000
X_31_7                        1.000000
X_32_18                       1.000000
X_33_7                        1.000000
X_34_17                       1.000000
X_35_7                        1.000000
X_36_2                        1.000000
X_37_7                        1.000000
X_38_15                       1.000000
X_39_15                       1.000000
X_40_10                       1.000000
X_41_2                        1.000000
X_42_13                       1.000000
X_43_3                        1.000000
X_44_18                       1.000000
X_45_13                       1.000000
X_46_14                       1.000000
X_47_2                        1.000000
X_48_15                       1.000000
X_49_4                        1.000000
X_50_6                        1.000000
X_51_9                        1.000000
X_52_19                       1.000000
X_53_9                        1.000000
X_54_9                        1.000000
X_55_15                       1.000000
X_56_16                       1.000000
X_57_8                        1.000000
X_58_11                       1.000000
X_59_1                        1.000000
X_60_18                       1.000000
X_61_14                       1.000000
X_62_9                        1.000000
X_63_7                        1.000000
X_64_12                       1.000000
X_65_2                        1.000000
X_66_15                       1.000000
X_67_7                        1.000000
X_68_14                       1.000000
X_69_2                        1.000000
X_70_15                       1.000000
X_71_16                       1.000000
X_72_17                       1.000000
X_73_8                        1.000000
X_74_11                       1.000000
X_75_16                       1.000000
X_76_16                       1.000000
X_77_5                        1.000000
X_78_18                       1.000000
X_79_20                       1.000000
X_80_9                        1.000000
X_81_2                        1.000000
X_82_3                        1.000000
X_83_14                       1.000000
X_84_9                        1.000000
X_85_10                       1.000000
X_86_6                        1.000000
X_87_4                        1.000000
X_88_7                        1.000000
X_89_3                        1.000000
X_90_15                       1.000000
X_91_1                        1.000000
X_92_9                        1.000000
X_93_7                        1.000000
X_94_9                        1.000000
X_95_4                        1.000000
X_96_17                       1.000000
X_97_13                       1.000000
X_98_5                        1.000000
X_99_15                       1.000000
X_100_9                       1.000000
All other variables in the range 1-2001 are 0.
